45

 0   0   0   0   4   0   0   7   0   0   0   0   0   0   0   0   0   0   0   0   0   0  26  26  26  26  26  26  26  26  27  27  27  27  27  27   7  27  15   8   8   1  14   4   4  
 0   0   0   0   0   0   0   0   0   0   0   0   0   0   0   0   0   0   0   0   0   0  26   2  26  26  26  26  26  26  27  27  27  27  27  27  27  27   7   7  14  15  20  20  13  
 0   0   0   0   0   0   0   0   0   0   0   0   0   0   0   0   0   0   0   0   8   0  26  26  26  26  26   9  26  26  27  27  27  27  27  27  27  27   5  20  17   6  19   3  15  
 0   0   0   0   0   0   0   0   0   0   0   0   0   0   0   0   0   0   8   0   0   0  26  26  26  26  26  26  26  26  27  27  27  27  27  27  27  27   3   4  16  18  10   1  15  
 4   0   0   0   0   0   0   0   0   8   0   8   1   0   0   0   0   2   0   0   0   0  26  26  26  26  26  26  26  26  27  27  27  27  27  27  27  27  14  10  11   7  17   9  10  
 0   0   0   0   0   0   0   0   0   0   0   8   0   0   2   0   0   0   0   0   0   0  26  26   9  26  26  26  26  26  27  27  27  27  27  27  27  27   6   3  15  16   5   9  13  
 0   0   0   0   0   0   0   0   2   0   0   0   0   0   0   0   0   0   0   0   7   0  26  26  26  26  26  26  26  26  27  27   7  27  27  27  27   6   4  12  18  15  10  11   6  
 7   0   0   0   0   0   0   0   0   0   0   0   0   0   0   0   0   7   0   0   0   0  26  26   3   2   6  26  26   2  27  27  27   9  27  27  27  27  18  13  19   7   9  20   9  
 0   0   0   0   0   0   2   0   0   0   0   0   0   0   0   0   0   0   0   0   0   0  29  29  29  29  29   3  29  29   5  13   8   2   6  13  13   4  26  26  26  26  26  26  26  
 0   0   0   0   8   0   0   0   0   0   0   0   0   0   0   0   0   0   0   0   0   0  29  29  29  29  29  29  29  29   1   9   2  10  15   4  13   6  26  26  26  26  26  26  26  
 0   0   0   0   0   0   0   0   0   0   0   0   0   0   7   0   0   0   0   0   0   0  29  29  29  29  29  29  29  29  19  18  19  14  11   8   2   7  26  26  26  26  26  26  26  
 0   0   0   0   8   8   0   0   0   0   0   0   0   0   0   0   0   0   0   0   0   0  29  29  29  29  29  29  29  29  19  18  14   7   4   9   1   5  26  26   2  26  26  26  26  
 0   0   0   0   1   0   0   0   0   0   0   0   0   0   0   0   0   0   0   0   0   0  29  29  29  29  29  29  29  29   9   1   8  18   4  15  12  18  26  26  26  26  26  26  26  
 0   0   0   0   0   0   0   0   0   0   0   0   0   0   0   0   0   0   0   0   8   0  29  29  29  29  29  29  29  29  13   6   8  10  11  16  10   8  26  26  26  26  26   9  26  
 0   0   0   0   0   2   0   0   0   0   7   0   0   0   0   0   0   0   0   0   0   0  29  29  29  29  29  29  29  29   9  11  13   6  10   4  13  11  26  26  26  26  26  26  26  
 0   0   0   0   0   0   0   0   0   0   0   0   0   0   0   0   0   0   0   0   0   0  12  11   6   9   5   7   3  11  29  29  29   1  29  29  29  29  26  26  26  26  26  26  26  
 0   0   0   0   0   0   0   0   0   0   0   0   0   0   0   0   0   0   0   0   0   2  19  10  11  19  19  14  15  17  29  29  29  29  29  29  29  29  26  26  26  26  26  26  26  
 0   0   0   0   2   0   0   7   0   0   0   0   0   0   0   0   0   0   0   0   0   0   1  17  13  12   1  16   7   6   4  29  29  29  29  29  29  29  26  26  26  26  26  26  26  
 0   0   0   8   0   0   0   0   0   0   0   0   0   0   0   0   0   0   0   0   0   5   8  17  18   4   3   5  16  15  29   6  29  29  29  29  29  29  26  26  26  26  26   1  26  
 0   0   0   0   0   0   0   0   0   0   0   0   0   0   0   0   0   0   0   0   0   0   8   7   3   6   5   2  12   4  29  29  29  29  29  29  29  29  26  26  26  26  26  26  26  
 0   0   8   0   0   0   7   0   0   0   0   0   0   8   0   0   0   0   0   0   0   0  10   7   6   8  17  10  14   6  29  29  29  29  29  29  29  29  26  26   1  26  26  26  26  
 0   0   0   0   0   0   0   0   0   0   0   0   0   0   0   0   2   0   5   0   0   0  11  16  18  16   7  10   7  17  29  29  29  29  29  29  29  29  26  26  26  26  26  26  26  
26  26  26  26  26  26  26  26  29  29  29  29  29  29  29   6  12  11   2  11  15  17   0   0   0   0   0   3   0   0   0   0   0   0   0   0   0   0   0   0   0   0   0   0   0  
26   2  26  26  26  26  26  26  29  29  29  29  29  29  29  20   3   9  12   7  20   5   0   0   0   0   0   0   0   0   0   0   0   0   0   0   0   0   0   0   0   0   0   0   0  
26  26  26  26  26   9  26   3  29  29  29  29  29  29  29   6   7  11  19  16  20   4   0   0   0   0   0   0   0   0   0   0   0   0   0   0   0   0   0   0   0   0   0   0   0  
26  26  26  26  26  26  26   2  29  29  29  29  29  29  29  11   1   3  13   1   8  17   0   0   0   0   0   0   0   0   0   0   0   0   0   0   0   0   0   0   0   0   0   0   0  
26  26  26  26  26  26  26   6  29  29  29  29  29  29  29   3  20  14   8   6  17  12   0   0   0   0   0   0   0   0   0   2   0   0   0   0   0   0   0   0   0   0   0   0   0  
26  26   9  26  26  26  26  26   3  29  29  29  29  29  29  11   4  20  10   2   2  19   3   0   0   0   0   0   0   0   0   0   0   0   0   0   0   0   0   0   0   0   0   0   0  
26  26  26  26  26  26  26  26  29  29  29  29  29  29  29  15  10   4   9   1  13   9   0   0   0   0   0   0   0   0   0   0   0   3   0   0   0   0   0   0   0   0   0   0   0  
26  26  26  26  26  26  26   2  29  29  29  29  29  29  29  10  19  10  15   4  17   6   0   0   0   0   0   0   0   0   0   0   0   5   0   0   0   0   0   0   0   0   8   0   0  
27  27  27  27  27  27  27  27   1  13  15   1   6  17  16  29  29   4  29  29  29  29   0   0   0   0   0   0   0   0   0   0   0   4   0   0   0   0   8   0   0   0   0   0   0  
27  27  27  27  27  27  27  27  20   1   7  13  15  15   6  29  29  29   6  29  29  29   0   0   0   0   2   0   0   0   0   0   0   0   0   0   0   0   0   0   0   0   0   0   0  
27  27  27  27  27  27   7  27  16  17   2  13  14  19  15  29  29  29  29  29  29  29   0   0   0   0   0   0   0   0   0   0   0   0   0   0   0   0   0   0   0   0   1   0   0  
27  27  27  27  27  27  27   9   2  12   3  18  10  16  16   1  29  29  29  29  29  29   0   0   0   0   0   0   3   5   4   0   0   0   0   0   0   9   0   0   0   0   0   0   0  
27  27  27  27  27  27  27  27   2   2  19   7  19   6   8  29  29  29  29  29  29  29   0   0   0   0   0   0   0   0   0   0   0   0   0   0   0   0   0   0   0   0   0   0   0  
27  27  27  27  27  27  27  27  13  20   8   1  19  16   1  29  29  29  29  29  29  29   0   0   0   0   0   0   0   0   0   0   0   0   0   0   0   0   0   0   0   0   0   0   0  
 7  27  27  27  27  27  27  27   2   3   2  15  10  14  15  29  29  29  29  29  29  29   0   0   0   0   0   0   0   0   0   0   0   0   0   0   0   0   0   0   0   0   0   0   0  
27  27  27  27  27  27   6  27   4   7  20   3   6  20  20  29  29  29  29  29  29  29   0   0   0   0   0   0   0   0   0   0   0   9   0   0   0   0   6   9   0   0   0   0   0  
20  16   5  10   3  19   3   2  26  26  26  26  26  26  26  26  26  26  26  26  26  26   0   0   0   0   0   0   0   0   8   0   0   0   0   0   0   6   0   0   0   0   0   0   0  
 2  19   7  19   8  10  15  11  26  26  26  26  26  26  26  26  26  26  26  26  26  26   0   0   0   0   0   0   0   0   0   0   0   0   0   0   0   9   0   0   0   0   0   0   0  
 8   4   1   1  15  12   5  17  26  26  26   2  26  26  26  26  26  26  26  26   1  26   0   0   0   0   0   0   0   0   0   0   0   0   0   0   0   0   0   0   0   0   0   0   0  
 4  20  18   6  15   1   9   1  26  26  26  26  26  26  26  26  26  26  26  26  26  26   0   0   0   0   0   0   0   0   0   0   0   0   0   0   0   0   0   0   0   0   0   4   8  
 3   3  15  18  15  16  15  20  26  26  26  26  26  26  26  26  26  26  26  26  26  26   0   0   0   0   0   0   0   8   0   0   1   0   0   0   0   0   0   0   0   0   0   0   0  
 9  13   3   1   4  20  18   4  26  26  26  26  26   9  26  26  26  26   1  26  26  26   0   0   0   0   0   0   0   0   0   0   0   0   0   0   0   0   0   0   0   4   0   0   0  
17  13  16   8  15  15   6   4  26  26  26  26  26  26  26  26  26  26  26  26  26  26   0   0   0   0   0   0   0   0   0   0   0   0   0   0   0   0   0   0   0   8   0   0   0  

 0   7   5  15   3  19   7   6  31  31  31  31  31  31  31  30  30  30  30  30  30  30   0   0   0   0   0   0   0   0   0   0   0   0   0   0   0   0   0   5   0   0   0   0   0  
 4   0  15  12  12  14   3  10  31  31  31  31  31  31  31   7  30  30  30  30  30  30   0   0   0   0   0   0   0   0   0   0   0   0   0   0   0   0   0   0   0   0   0   1   0  
 5  11   0  18  14  14  14  16  31  31  31  31  31  31  31  30  30  30  30  30  30  30   0   0   0   0   0   0   0   0   0   0   0   0   0   0   0   0   0   0   0   0   0   0   0  
14   3  18   0   8   2   4  14  31  31  31  31  31   9  31  30  30  30  30  30  30  30   0   0   5   0   0   0   0   0   0   0   0   0   0   0   0   0   0   0   0   0   0   0   0  
 6   3  11  10   0   4  16   2  31  31  31  31  31  31  31   7  30  30  30  30  30  30   0   0   0   0   0   0   0   0   0   0   0   0   0   0   0   0   0   0   0   0   0   0   0  
19   6   8  20   1   0   7   2  31  31   1   6  31  31  31  30  30  30  30   3  30  30   0   0   0   0   0   0   0   4   6   0   0   4   0   0   0   7   0   0   0   0   0   0   0  
13  12  17   2   4  14   0  10   6  31  31  31  31  31  31  30  30  30  30  30  30  30   0   0   0   1   0   0   0   0   0   0   0   0   0   0   7   0   6   1   0   0   0   0   0  
19   7  16   5  19  12  11   0  31  31  31  31  31  31  31  30  30  30  30  30  30  30   0   0   0   0   4   0   0   0   0   0   0   0   0   0   0   0   0   0   0   0   0   0   0  
31  31  31  31  31  31   6  31   0  12  12  12   7  12   1  26  26  26  26  26  26  26   0   0   0   0   0   0   0   0   0   0   0   0   0   0   0   0   0   0   0   0   0   0   0  
31  31  31  31  31  31  31  31  12   0  16   9  19   2   1  26  26  26  26  26  26  26   0   0   0   0   0   0   0   0   0   0   0   0   0   0   0   0   0   0   0   0   0   0   0  
31  31  31  31  31   1  31  31  17   2   0   5   9  16  10  26  26  26  26   2   9  26   4   0   0   0   0   0   0   1   0   0   0   0   0   0   0   0   0   0   0   0   0   0   0  
31  31  31  31  31   6  31  31   2   9   7   0  16  18  12  26  26  26  26  26  26  26   0   0   0   0   0   0   0   0   0   0   0   0   0   0   0   0   0   0   0   0   0   0   0  
31  31  31  31  31  31  31  31   3  17  17  19   0   9  17   1  26  26  26  26  26  26   0   0   0   0   0   0   0   0   0   0   0   0   0   3   0   0   0   0   0   0   0   0   0  
31  31  31   9  31  31  31  31   1   8  13   6  18   0  14  26  26  26  26  26  26  26   0   0   0   0   0   0   0   0   0   0   0   0   0   0   0   0   0   0   0   0   0   0   0  
31  31  31  31  31  31  31  31  18  18  14  17   3   3   0  26  26  26  26  26  26  26   0   0   0   0   0   0   0   0   0   0   9   5   3   0   0   0   0   0   0   0   0   0   0  
30   7  30  30   7  30  30  30  26  26  26  26   1  26  26   0  14   4   8   6   1   5   0   0   0   0   0   0   0   0   0   0   0   7   0   0   0   0   0   0   0   0   0   0   0  
30  30  30  30  30  30  30  30  26  26  26  26  26  26  26  19   0  20  19  16  10   7   0   0   0   0   0   0   0   0   0   0   0   0   0   0   0   0   0   0   0   0   0   0   0  
30  30  30  30  30  30  30  30  26  26  26  26  26  26  26   7  12   0  15  14   1  11   0   0   0   0   0   0   0   0   0   0   0   0   0   0   7   0   0   0   0   0   0   0   0  
30  30  30  30  30  30  30  30  26  26  26  26  26  26  26   8  12  14   0  20  20  12   0   0   1   0   0   3   0   0   0   0   0   9   0   0   0   0   0   0   0   0   0   0   0  
30  30  30  30  30   3  30  30  26  26   2  26  26  26  26   3   4   3  14   0  12   2   0   0   0   0   0   0   0   0   0   0   0   0   0   0   0   0   0   0   0   0   0   0   0  
30  30  30  30  30  30  30  30  26  26   9  26  26  26  26  17  14   1  12  12   0  19   0   0   0   0   0   0   0   0   0   0   0   0   0   0   0   0   0   0   0   0   0   0   0  
30  30  30  30  30  30  30  30  26  26  26  26  26  26  26   9   5  18   6  13  13   0   0   0   0   0   0   0   0   0   0   0   0   0   0   0   0   0   0   0   0   0   0   0   0  
 0   0   0   0   0   0   0   0   0   0   4   0   0   0   0   0   0   0   0   0   0   0  12   3   4  13   1  18   5  12  25  25  25  25  25  25  25  25  29  29  29  29  29  29  29  
 0   0   0   0   0   0   0   0   0   0   0   0   0   0   0   0   0   0   0   0   0   0   3  16  13   3  11   7  16  18  25  25  25  25  25  25  25  25  29  29  29  29  29  29  29  
 0   0   0   5   0   0   0   0   0   0   0   0   0   0   0   0   0   0   1   0   0   0   4  10  11  13   9  17  11   5  25  25  25  25  25  25  25  25  29  29   8  29  29  29  29  
 0   0   0   0   0   0   1   0   0   0   0   0   0   0   0   0   0   0   0   0   0   0  14  13  10  11  18   1   5   3  25  25  25  25  25  25  25  25  29  29  29  29  29  29  29  
 0   0   0   0   0   0   0   4   0   0   0   0   0   0   0   0   0   0   0   0   0   0  18   9   5   9   3   4   7   4  25  25  25  25  25  25  25  25  29  29  29  29   2  29  29  
 0   0   0   0   0   0   0   0   0   0   0   0   0   0   0   0   0   0   3   0   0   0   6   7  20  17   5   8  17   5  25  25  25  25  25  25   3  25  29  29  29  29  29  29  29  
 0   0   0   0   0   0   0   0   0   0   0   0   0   0   0   0   0   0   0   0   0   0  11  19   2   8   2   1  12  18  25  25  25  25  25  25  25  25  29  29  29  29  29  29  29  
 0   0   0   0   0   4   0   0   0   0   1   0   0   0   0   0   0   0   0   0   0   0  12  16   6  11  11   4   4  16  25  25  25   9  25  25  25  25  29  29  29  29  29  29  29  
 0   0   0   0   0   6   0   0   0   0   0   0   0   0   0   0   0   0   0   0   0   0  25  25  25  25  25  25  25  25  19   9  13   9  14  14  19   6  31  31  31  31  31  31  31  
 0   0   0   0   0   0   0   0   0   0   0   0   0   0   0   0   0   0   0   0   0   0  25  25  25  25  25  25  25  25   1  11   2  18  14   3   5   2  31  31  31  31  31  31  31  
 0   0   0   0   0   0   0   0   0   0   0   0   0   0   9   0   0   0   0   0   0   0  25  25  25  25  25  25  25  25   7   3   6  13  17   7   2  15  31  31  31   6  31  31  31  
 0   0   0   0   0   4   0   0   0   0   0   0   0   0   5   7   0   0   9   0   0   0  25  25  25  25  25  25  25   9   1  15  18   2   1  11   2  16  31  31  31  31  31  31  31  
 0   0   0   0   0   0   0   0   0   0   0   0   0   0   3   0   0   0   0   0   0   0  25  25  25  25  25  25  25  25  15  14  13   5   4  12   6  15  31  31  31  31  31   6  31  
 0   0   0   0   0   0   0   0   0   0   0   0   3   0   0   0   0   0   0   0   0   0  25  25  25  25  25  25  25  25  15  17  11   8  10   4   8   1  31  31  31  31  31  31  31  
 0   0   0   0   0   0   7   0   0   0   0   0   0   0   0   0   0   7   0   0   0   0  25  25  25  25  25   3  25  25  19   9   5   6  19   6  14  16   3  31  31  31  31  31  31  
 0   0   0   0   0   7   0   0   0   0   0   0   0   0   0   0   0   0   0   0   0   0  25  25  25  25  25  25  25  25  17   5   5   1  17  10  19  11  31  31  31  31  31  31   2  
 0   0   0   0   0   0   6   0   0   0   0   0   0   0   0   0   0   0   0   0   0   0  29  29  29  29  29  29  29  29  31  31  31  31  31  31   3  31  13   6  16   4   8  12  20  
 5   0   0   0   0   0   1   0   0   0   0   0   0   0   0   0   0   0   0   0   0   0  29  29  29  29  29  29  29  29  31  31  31  31  31  31  31  31  11   3  15   4   5   4  14  
 0   0   0   0   0   0   0   0   0   0   0   0   0   0   0   0   0   0   0   0   0   0  29  29   8  29  29  29  29  29  31  31  31  31  31  31  31  31  16  20  20   8   2  15   1  
 0   0   0   0   0   0   0   0   0   0   0   0   0   0   0   0   0   0   0   0   0   0  29  29  29  29  29  29  29  29  31  31   6  31  31  31  31  31   4  19  14  17   2  17  12  
 0   0   0   0   0   0   0   0   0   0   0   0   0   0   0   0   0   0   0   0   0   0  29  29  29  29   2  29  29  29  31  31  31  31  31  31  31  31   8  11  18  17  11   3  10  
 0   1   0   0   0   0   0   0   0   0   0   0   0   0   0   0   0   0   0   0   0   0  29  29  29  29  29  29  29  29  31  31  31  31   6  31  31  31   4  11   5  11   2  15   7  
 0   0   0   0   0   0   0   0   0   0   0   0   0   0   0   0   0   0   0   0   0   0  29  29  29  29  29  29  29  29  31  31  31  31  31  31  31   2  17  11   3   9  16   8   3  
